p cnf 268 490
e 1 2 3 4 5 6 7 8 9 10 11 12 13 14 15 16 17 18 19 20 21 22 23 24 25 26 27 28 29 30 31 32 33 34 35 36 37 38 39 40 41 42 43 44 45 46 47 48 49 50 51 52 53 54 55 56 57 58 59 60 61 62 63 64 65 66 67 68 69 70 71 72 73 74 75 76 77 78 79 80 81 82 83 84 85 86 87 88 89 90 91 92 93 94 95 96 97 98 99 100 101 102 103 104 105 106 107 108 109 110 111 112 113 114 115 116 117 118 119 120 121 122 123 124 125 126 127 128 129 130 131 132 133 134 135 136 137 138 139 140 141 142 143 144 145 146 147 148 149 150 151 152 153 154 155 156 157 158 159 160 161 162 163 164 165 166 167 168 169 170 171 172 173 174 175 176 177 178 179 180 181 182 183 184 185 186 187 188 189 190 191 192 193 194 195 196 197 198 199 200 201 202 203 204 205 206 207 208 209 210 211 212 213 214 215 216 217 218 219 220 221 222 223 224 225 226 227 228 229 230 231 232 233 234 235 236 237 238 239 240 241 242 243 244 245 246 247 248 249 250 251 252 253 254 255 256 257 258 259 260 261 262 263 264 265 266 267 268 0
-213 0
166 0
168 0
-37 0
-14 0
-17 0
-142 0
186 0
-216 0
-5 0
-12 0
-52 0
-61 0
-218 0
-50 0
-228 0
-20 0
-34 0
-48 0
-66 0
-212 0
177 0
181 0
-8 0
-221 0
-27 0
-33 0
-139 0
-163 0
-53 0
-109 0
-115 0
-56 0
-28 0
-46 0
-51 0
-68 0
-32 0
-16 0
-103 0
-29 0
172 0
185 0
-226 0
-224 0
-63 0
-19 0
-64 0
-136 0
-157 0
167 0
-6 0
183 0
-234 0
-233 0
-45 0
-230 0
-7 0
-4 0
-58 0
-97 0
170 0
-18 0
164 0
-65 0
-3 0
-133 0
-215 0
-268 0
-118 0
-15 0
175 0
-231 0
-188 0
-49 0
-220 0
1 0
-121 0
-145 0
169 0
180 0
-232 0
-42 0
-214 0
-41 0
-13 0
-40 0
-60 0
-148 0
-11 0
-160 0
179 0
184 0
-43 0
-151 0
178 0
187 0
-31 0
-21 0
-106 0
176 0
-222 0
-217 0
236 0
-22 0
-70 0
-112 0
-127 0
-130 0
165 0
182 0
-2 0
-223 0
-44 0
-47 0
-9 0
-25 0
-69 0
-227 0
-35 0
171 0
-39 0
-100 0
174 0
-225 0
-59 0
-23 0
-26 0
-10 0
-24 0
-55 0
-67 0
-154 0
-235 0
-229 0
-62 0
-36 0
-54 0
173 0
-38 0
-57 0
-124 0
-219 0
-30 0
-95 96 0
95 -96 0
-98 99 0
98 -99 0
-101 102 0
101 -102 0
-104 105 0
104 -105 0
-107 108 0
107 -108 0
-110 111 0
110 -111 0
-113 114 0
113 -114 0
-116 117 0
116 -117 0
-119 120 0
119 -120 0
-122 123 0
122 -123 0
-125 126 0
125 -126 0
-128 129 0
128 -129 0
-131 132 0
131 -132 0
-134 135 0
134 -135 0
-137 138 0
137 -138 0
-140 141 0
140 -141 0
-143 144 0
143 -144 0
-146 147 0
146 -147 0
-149 150 0
149 -150 0
-152 153 0
152 -153 0
-155 156 0
155 -156 0
-158 159 0
158 -159 0
-161 162 0
161 -162 0
71 -96 0
71 -99 0
71 -102 0
71 -105 0
71 -108 0
71 -111 0
71 -114 0
71 -117 0
71 -120 0
71 -123 0
71 -126 0
71 -129 0
71 -132 0
71 -135 0
71 -138 0
71 -141 0
71 -144 0
71 -147 0
71 -150 0
71 -153 0
71 -156 0
71 -159 0
71 -162 0
72 -96 0
73 -99 0
74 -102 0
75 -105 0
76 -108 0
77 -111 0
78 -114 0
79 -117 0
80 -120 0
81 -123 0
82 -126 0
83 -129 0
84 -132 0
85 -135 0
86 -138 0
87 -141 0
88 -144 0
89 -147 0
90 -150 0
91 -153 0
92 -156 0
93 -159 0
94 -162 0
237 -96 -99 -102 0
-237 96 0
-237 99 0
-237 102 0
238 -105 -108 -111 0
-238 105 0
-238 108 0
-238 111 0
239 -114 0
-239 114 0
240 -117 -120 -123 0
-240 117 0
-240 120 0
-240 123 0
241 -129 -132 -135 0
-241 129 0
-241 132 0
-241 135 0
242 -138 -141 -144 0
-242 138 0
-242 141 0
-242 144 0
243 -147 -150 -153 0
-243 147 0
-243 150 0
-243 153 0
244 -156 -159 -162 0
-244 156 0
-244 159 0
-244 162 0
245 -96 -105 0
-245 96 0
-245 105 0
246 -138 -147 -156 0
-246 138 0
-246 147 0
-246 156 0
247 -99 -108 0
-247 99 0
-247 108 0
248 -141 -150 -159 0
-248 141 0
-248 150 0
-248 159 0
249 -102 -111 -114 0
-249 102 0
-249 111 0
-249 114 0
250 -123 -126 -135 0
-250 123 0
-250 126 0
-250 135 0
251 -144 -153 -162 0
-251 144 0
-251 153 0
-251 162 0
252 -96 -108 -114 0
-252 96 0
-252 108 0
-252 114 0
253 -138 -150 -162 0
-253 138 0
-253 150 0
-253 162 0
254 -102 -108 0
-254 102 0
-254 108 0
255 -96 -117 -138 0
-255 96 0
-255 117 0
-255 138 0
256 -99 -120 -141 0
-256 99 0
-256 120 0
-256 141 0
257 -102 -123 -144 0
-257 102 0
-257 123 0
-257 144 0
258 -111 -126 -153 0
-258 111 0
-258 126 0
-258 153 0
259 -129 -156 0
-259 129 0
-259 156 0
260 -132 -159 0
-260 132 0
-260 159 0
261 -114 -135 -162 0
-261 114 0
-261 135 0
-261 162 0
262 -102 -126 -162 0
-262 102 0
-262 126 0
-262 162 0
263 -114 -126 -144 0
-263 114 0
-263 126 0
-263 144 0
264 -96 -120 -144 0
-264 96 0
-264 120 0
-264 144 0
265 -132 -162 0
-265 132 0
-265 162 0
266 -102 -120 -138 0
-266 102 0
-266 120 0
-266 138 0
267 -114 -132 -156 0
-267 114 0
-267 132 0
-267 156 0
237 238 239 240 241 242 243 244 245 246 247 248 249 250 251 252 253 254 255 256 257 258 259 260 261 262 263 264 265 266 267 0
-72 189 0
72 -189 0
-73 190 0
-189 190 0
73 -190 189 0
-73 -189 0
-74 191 0
-190 191 0
74 -191 190 0
-74 -190 0
-75 192 0
-191 192 0
75 -192 191 0
-75 -191 0
-76 193 0
-192 193 0
76 -193 192 0
-76 -192 0
-77 194 0
-193 194 0
77 -194 193 0
-77 -193 0
-78 195 0
-194 195 0
78 -195 194 0
-78 -194 0
-79 196 0
-195 196 0
79 -196 195 0
-79 -195 0
-80 197 0
-196 197 0
80 -197 196 0
-80 -196 0
-81 198 0
-197 198 0
81 -198 197 0
-81 -197 0
-82 199 0
-198 199 0
82 -199 198 0
-82 -198 0
-83 200 0
-199 200 0
83 -200 199 0
-83 -199 0
-84 201 0
-200 201 0
84 -201 200 0
-84 -200 0
-85 202 0
-201 202 0
85 -202 201 0
-85 -201 0
-86 203 0
-202 203 0
86 -203 202 0
-86 -202 0
-87 204 0
-203 204 0
87 -204 203 0
-87 -203 0
-88 205 0
-204 205 0
88 -205 204 0
-88 -204 0
-89 206 0
-205 206 0
89 -206 205 0
-89 -205 0
-90 207 0
-206 207 0
90 -207 206 0
-90 -206 0
-91 208 0
-207 208 0
91 -208 207 0
-91 -207 0
-92 209 0
-208 209 0
92 -209 208 0
-92 -208 0
-93 210 0
-209 210 0
93 -210 209 0
-93 -209 0
-94 211 0
-210 211 0
94 -211 210 0
-94 -210 0
-71 211 0
-72 96 0
-72 71 0
-73 99 0
-73 71 0
-74 102 0
-74 71 0
-75 105 0
-75 71 0
-76 108 0
-76 71 0
-77 111 0
-77 71 0
-78 114 0
-78 71 0
-79 117 0
-79 71 0
-80 120 0
-80 71 0
-81 123 0
-81 71 0
-82 126 0
-82 71 0
-83 129 0
-83 71 0
-84 132 0
-84 71 0
-85 135 0
-85 71 0
-86 138 0
-86 71 0
-87 141 0
-87 71 0
-88 144 0
-88 71 0
-89 147 0
-89 71 0
-90 150 0
-90 71 0
-91 153 0
-91 71 0
-92 156 0
-92 71 0
-93 159 0
-93 71 0
-94 162 0
-94 71 0
